NAME : X-n317-k53
COMMENT : "Generated by Uchoa, Pecin, Pessoa, Poggi, Subramanian, and Vidal (2013)"
TYPE : CVRP
DIMENSION : 317
EDGE_WEIGHT_TYPE : EUC_2D
CAPACITY : 6
NODE_COORD_SECTION
1 0 0
2 971 544
3 564 976
4 266 4
5 395 95
6 379 271
7 936 538
8 980 578
9 242 92
10 476 74
11 247 159
12 359 108
13 473 941
14 490 947
15 548 950
16 389 864
17 916 664
18 212 91
19 415 182
20 961 553
21 423 232
22 596 931
23 955 566
24 534 93
25 252 6
26 950 580
27 517 950
28 942 618
29 636 981
30 629 809
31 508 35
32 108 130
33 391 19
34 208 183
35 991 680
36 428 48
37 272 220
38 931 581
39 327 128
40 966 514
41 313 202
42 267 1
43 404 925
44 985 594
45 895 429
46 348 12
47 316 258
48 238 20
49 970 490
50 854 586
51 293 104
52 628 919
53 880 597
54 353 241
55 753 728
56 291 93
57 993 439
58 382 125
59 230 36
60 984 471
61 489 23
62 277 137
63 593 171
64 378 204
65 411 87
66 207 85
67 538 991
68 906 631
69 343 72
70 445 68
71 673 268
72 576 951
73 388 66
74 953 504
75 434 145
76 530 11
77 632 879
78 541 968
79 353 851
80 629 868
81 593 896
82 936 411
83 272 40
84 276 93
85 469 169
86 359 894
87 548 998
88 52 69
89 397 58
90 507 145
91 451 162
92 646 996
93 532 906
94 220 126
95 536 831
96 482 212
97 137 53
98 511 991
99 978 506
100 300 111
101 907 711
102 908 488
103 222 137
104 266 48
105 423 67
106 268 125
107 434 25
108 548 982
109 511 888
110 371 256
111 440 179
112 331 82
113 965 439
114 545 968
115 447 40
116 785 664
117 915 669
118 468 98
119 247 6
120 271 70
121 260 110
122 902 679
123 926 874
124 587 988
125 368 419
126 351 158
127 967 685
128 559 968
129 278 56
130 877 507
131 353 164
132 984 540
133 380 89
134 886 376
135 943 408
136 420 204
137 386 78
138 219 18
139 497 961
140 542 965
141 718 869
142 297 45
143 414 69
144 606 959
145 575 99
146 330 101
147 364 74
148 257 22
149 371 64
150 600 994
151 951 536
152 534 896
153 297 96
154 467 149
155 438 917
156 385 883
157 233 239
158 481 945
159 414 128
160 602 752
161 592 151
162 267 82
163 587 946
164 728 991
165 242 136
166 292 9
167 916 480
168 494 918
169 2 149
170 24 105
171 933 577
172 227 49
173 651 947
174 991 512
175 805 704
176 253 66
177 628 824
178 199 18
179 833 534
180 633 864
181 343 42
182 565 991
183 603 996
184 404 30
185 434 92
186 822 465
187 393 81
188 351 78
189 390 56
190 536 967
191 553 985
192 652 868
193 472 900
194 824 545
195 370 189
196 196 21
197 524 974
198 590 878
199 551 951
200 480 48
201 384 185
202 327 228
203 567 966
204 537 964
205 929 577
206 491 141
207 336 12
208 496 953
209 149 57
210 394 63
211 250 252
212 238 63
213 245 222
214 263 50
215 231 37
216 512 13
217 868 481
218 994 635
219 697 87
220 989 535
221 462 954
222 355 240
223 335 89
224 817 544
225 501 154
226 196 66
227 389 36
228 413 62
229 277 111
230 245 95
231 878 469
232 407 109
233 326 52
234 999 601
235 974 433
236 578 969
237 548 784
238 519 21
239 436 135
240 986 436
241 483 19
242 420 197
243 417 122
244 825 609
245 347 96
246 967 530
247 749 542
248 271 20
249 307 72
250 420 130
251 821 398
252 147 97
253 950 512
254 394 190
255 962 584
256 934 530
257 611 926
258 323 185
259 966 530
260 378 189
261 334 189
262 340 77
263 265 136
264 303 315
265 533 852
266 562 977
267 995 477
268 862 649
269 379 190
270 935 565
271 178 11
272 465 237
273 214 179
274 479 913
275 903 530
276 379 102
277 268 8
278 922 511
279 403 33
280 289 71
281 474 196
282 374 90
283 557 25
284 957 581
285 134 103
286 554 116
287 392 111
288 200 392
289 929 514
290 521 905
291 341 210
292 394 77
293 339 130
294 938 635
295 315 258
296 970 710
297 376 48
298 402 128
299 954 450
300 528 302
301 433 137
302 353 113
303 611 991
304 235 12
305 544 988
306 958 520
307 521 76
308 334 23
309 264 63
310 591 913
311 532 972
312 589 956
313 568 972
314 983 621
315 418 817
316 312 39
317 334 176
PICKUP_AND_DELIVERY_SECTION
1 0 0 1000000000 0 0 0
2 0 0 1000000000 0 0.4398 0.5602
3 0 0 1000000000 0 0.4221 0.5779
4 0 0 1000000000 0 0.985 0.01504
5 0 0 1000000000 0 0.7595 0.2405
6 0 0 1000000000 0 0.285 0.715
7 0 0 1000000000 0 0.4252 0.5748
8 0 0 1000000000 0 0.4102 0.5898
9 0 0 1000000000 0 0.6198 0.3802
10 0 0 1000000000 0 0.8445 0.1555
11 0 0 1000000000 0 0.3563 0.6437
12 0 0 1000000000 0 0.6992 0.3008
13 0 0 1000000000 0 0.4973 0.5027
14 0 0 1000000000 0 0.4826 0.5174
15 0 0 1000000000 0 0.4232 0.5768
16 0 0 1000000000 0 0.5498 0.4502
17 0 0 1000000000 0 0.2751 0.7249
18 0 0 1000000000 0 0.5708 0.4292
19 0 0 1000000000 0 0.5614 0.4386
20 0 0 1000000000 0 0.4246 0.5754
21 0 0 1000000000 0 0.4515 0.5485
22 0 0 1000000000 0 0.3598 0.6402
23 0 0 1000000000 0 0.4073 0.5927
24 0 0 1000000000 0 0.8258 0.1742
25 0 0 1000000000 0 0.9762 0.02381
26 0 0 1000000000 0 0.3895 0.6105
27 0 0 1000000000 0 0.4558 0.5442
28 0 0 1000000000 0 0.3439 0.6561
29 0 0 1000000000 0 0.3517 0.6483
30 0 0 1000000000 0 0.2225 0.7775
31 0 0 1000000000 0 0.9311 0.0689
32 0 0 1000000000 0 0.1692 0.8308
33 0 0 1000000000 0 0.9514 0.04859
34 0 0 1000000000 0 0.1202 0.8798
35 0 0 1000000000 0 0.3138 0.6862
36 0 0 1000000000 0 0.8879 0.1121
37 0 0 1000000000 0 0.1912 0.8088
38 0 0 1000000000 0 0.3759 0.6241
39 0 0 1000000000 0 0.6086 0.3914
40 0 0 1000000000 0 0.4679 0.5321
41 0 0 1000000000 0 0.3546 0.6454
42 0 0 1000000000 0 0.9963 0.00375
43 0 0 1000000000 0 0.5632 0.4368
44 0 0 1000000000 0 0.397 0.603
45 0 0 1000000000 0 0.5207 0.4793
46 0 0 1000000000 0 0.9655 0.03448
47 0 0 1000000000 0 0.1835 0.8165
48 0 0 1000000000 0 0.916 0.08403
49 0 0 1000000000 0 0.4948 0.5052
50 0 0 1000000000 0 0.3138 0.6862
51 0 0 1000000000 0 0.6451 0.3549
52 0 0 1000000000 0 0.3166 0.6834
53 0 0 1000000000 0 0.3216 0.6784
54 0 0 1000000000 0 0.3173 0.6827
55 0 0 1000000000 0 0.0332 0.9668
56 0 0 1000000000 0 0.6804 0.3196
57 0 0 1000000000 0 0.5579 0.4421
58 0 0 1000000000 0 0.6728 0.3272
59 0 0 1000000000 0 0.8435 0.1565
60 0 0 1000000000 0 0.5213 0.4787
61 0 0 1000000000 0 0.953 0.04703
62 0 0 1000000000 0 0.5054 0.4946
63 0 0 1000000000 0 0.7116 0.2884
64 0 0 1000000000 0 0.4603 0.5397
65 0 0 1000000000 0 0.7883 0.2117
66 0 0 1000000000 0 0.5894 0.4106
67 0 0 1000000000 0 0.4571 0.5429
68 0 0 1000000000 0 0.3035 0.6965
69 0 0 1000000000 0 0.7901 0.2099
70 0 0 1000000000 0 0.8472 0.1528
71 0 0 1000000000 0 0.6018 0.3982
72 0 0 1000000000 0 0.3943 0.6057
73 0 0 1000000000 0 0.8299 0.1701
74 0 0 1000000000 0 0.4711 0.5289
75 0 0 1000000000 0 0.6659 0.3341
76 0 0 1000000000 0 0.9792 0.02075
77 0 0 1000000000 0 0.281 0.719
78 0 0 1000000000 0 0.4411 0.5589
79 0 0 1000000000 0 0.5852 0.4148
80 0 0 1000000000 0 0.2753 0.7247
81 0 0 1000000000 0 0.3382 0.6618
82 0 0 1000000000 0 0.5609 0.4391
83 0 0 1000000000 0 0.8529 0.1471
84 0 0 1000000000 0 0.663 0.337
85 0 0 1000000000 0 0.6397 0.3603
86 0 0 1000000000 0 0.5984 0.4016
87 0 0 1000000000 0 0.4509 0.5491
88 0 0 1000000000 0 0.2464 0.7536
89 0 0 1000000000 0 0.8539 0.1461
90 0 0 1000000000 0 0.714 0.286
91 0 0 1000000000 0 0.6408 0.3592
92 0 0 1000000000 0 0.3514 0.6486
93 0 0 1000000000 0 0.4128 0.5872
94 0 0 1000000000 0 0.4273 0.5727
95 0 0 1000000000 0 0.355 0.645
96 0 0 1000000000 0 0.5602 0.4398
97 0 0 1000000000 0 0.6131 0.3869
98 0 0 1000000000 0 0.4844 0.5156
99 0 0 1000000000 0 0.4826 0.5174
100 0 0 1000000000 0 0.63 0.37
101 0 0 1000000000 0 0.2161 0.7839
102 0 0 1000000000 0 0.4626 0.5374
103 0 0 1000000000 0 0.3829 0.6171
104 0 0 1000000000 0 0.8195 0.1805
105 0 0 1000000000 0 0.8416 0.1584
106 0 0 1000000000 0 0.5336 0.4664
107 0 0 1000000000 0 0.9424 0.0576
108 0 0 1000000000 0 0.442 0.558
109 0 0 1000000000 0 0.4245 0.5755
110 0 0 1000000000 0 0.31 0.69
111 0 0 1000000000 0 0.5932 0.4068
112 0 0 1000000000 0 0.7523 0.2477
113 0 0 1000000000 0 0.5451 0.4549
114 0 0 1000000000 0 0.437 0.563
115 0 0 1000000000 0 0.9105 0.08949
116 0 0 1000000000 0 0.1541 0.8459
117 0 0 1000000000 0 0.2689 0.7311
118 0 0 1000000000 0 0.7906 0.2094
119 0 0 1000000000 0 0.9757 0.02429
120 0 0 1000000000 0 0.7417 0.2583
121 0 0 1000000000 0 0.5769 0.4231
122 0 0 1000000000 0 0.2472 0.7528
123 0 0 1000000000 0 0.05616 0.9438
124 0 0 1000000000 0 0.4059 0.5941
125 0 0 1000000000 0 0.1217 0.8783
126 0 0 1000000000 0 0.5499 0.4501
127 0 0 1000000000 0 0.2916 0.7084
128 0 0 1000000000 0 0.4225 0.5775
129 0 0 1000000000 0 0.7986 0.2014
130 0 0 1000000000 0 0.4219 0.5781
131 0 0 1000000000 0 0.5354 0.4646
132 0 0 1000000000 0 0.4512 0.5488
133 0 0 1000000000 0 0.7658 0.2342
134 0 0 1000000000 0 0.5756 0.4244
135 0 0 1000000000 0 0.5673 0.4327
136 0 0 1000000000 0 0.5143 0.4857
137 0 0 1000000000 0 0.7979 0.2021
138 0 0 1000000000 0 0.9178 0.08219
139 0 0 1000000000 0 0.4828 0.5172
140 0 0 1000000000 0 0.4383 0.5617
141 0 0 1000000000 0 0.1738 0.8262
142 0 0 1000000000 0 0.8485 0.1515
143 0 0 1000000000 0 0.8333 0.1667
144 0 0 1000000000 0 0.3681 0.6319
145 0 0 1000000000 0 0.8278 0.1722
146 0 0 1000000000 0 0.6939 0.3061
147 0 0 1000000000 0 0.7967 0.2033
148 0 0 1000000000 0 0.9144 0.0856
149 0 0 1000000000 0 0.8275 0.1725
150 0 0 1000000000 0 0.3964 0.6036
151 0 0 1000000000 0 0.4364 0.5636
152 0 0 1000000000 0 0.404 0.596
153 0 0 1000000000 0 0.6768 0.3232
154 0 0 1000000000 0 0.6809 0.3191
155 0 0 1000000000 0 0.5224 0.4776
156 0 0 1000000000 0 0.564 0.436
157 0 0 1000000000 0 0.0251 0.9749
158 0 0 1000000000 0 0.491 0.509
159 0 0 1000000000 0 0.6908 0.3092
160 0 0 1000000000 0 0.1995 0.8005
161 0 0 1000000000 0 0.7449 0.2551
162 0 0 1000000000 0 0.6929 0.3071
163 0 0 1000000000 0 0.3795 0.6205
164 0 0 1000000000 0 0.2654 0.7346
165 0 0 1000000000 0 0.438 0.562
166 0 0 1000000000 0 0.9692 0.03082
167 0 0 1000000000 0 0.476 0.524
168 0 0 1000000000 0 0.4619 0.5381
169 0 0 1000000000 0 0.9866 0.01342
170 0 0 1000000000 0 0.7714 0.2286
171 0 0 1000000000 0 0.3816 0.6184
172 0 0 1000000000 0 0.7841 0.2159
173 0 0 1000000000 0 0.3126 0.6874
174 0 0 1000000000 0 0.4834 0.5166
175 0 0 1000000000 0 0.1255 0.8745
176 0 0 1000000000 0 0.7391 0.2609
177 0 0 1000000000 0 0.2379 0.7621
178 0 0 1000000000 0 0.9095 0.09045
179 0 0 1000000000 0 0.3589 0.6411
180 0 0 1000000000 0 0.2674 0.7326
181 0 0 1000000000 0 0.8776 0.1224
182 0 0 1000000000 0 0.4299 0.5701
183 0 0 1000000000 0 0.3946 0.6054
184 0 0 1000000000 0 0.9257 0.07426
185 0 0 1000000000 0 0.788 0.212
186 0 0 1000000000 0 0.4343 0.5657
187 0 0 1000000000 0 0.7939 0.2061
188 0 0 1000000000 0 0.7778 0.2222
189 0 0 1000000000 0 0.8564 0.1436
190 0 0 1000000000 0 0.4457 0.5543
191 0 0 1000000000 0 0.4386 0.5614
192 0 0 1000000000 0 0.2488 0.7512
193 0 0 1000000000 0 0.4756 0.5244
194 0 0 1000000000 0 0.3386 0.6614
195 0 0 1000000000 0 0.4892 0.5108
196 0 0 1000000000 0 0.8929 0.1071
197 0 0 1000000000 0 0.462 0.538
198 0 0 1000000000 0 0.328 0.672
199 0 0 1000000000 0 0.4206 0.5794
200 0 0 1000000000 0 0.9 0.1
201 0 0 1000000000 0 0.5182 0.4818
202 0 0 1000000000 0 0.3028 0.6972
203 0 0 1000000000 0 0.413 0.587
204 0 0 1000000000 0 0.4429 0.5571
205 0 0 1000000000 0 0.3789 0.6211
206 0 0 1000000000 0 0.7128 0.2872
207 0 0 1000000000 0 0.9643 0.03571
208 0 0 1000000000 0 0.4795 0.5205
209 0 0 1000000000 0 0.6174 0.3826
210 0 0 1000000000 0 0.8401 0.1599
211 0 0 1000000000 0 0.00794 0.9921
212 0 0 1000000000 0 0.7353 0.2647
213 0 0 1000000000 0 0.09388 0.9061
214 0 0 1000000000 0 0.8099 0.1901
215 0 0 1000000000 0 0.8398 0.1602
216 0 0 1000000000 0 0.9746 0.02539
217 0 0 1000000000 0 0.4459 0.5541
218 0 0 1000000000 0 0.3612 0.6388
219 0 0 1000000000 0 0.8752 0.1248
220 0 0 1000000000 0 0.459 0.541
221 0 0 1000000000 0 0.5157 0.4843
222 0 0 1000000000 0 0.3239 0.6761
223 0 0 1000000000 0 0.7343 0.2657
224 0 0 1000000000 0 0.3341 0.6659
225 0 0 1000000000 0 0.6926 0.3074
226 0 0 1000000000 0 0.6633 0.3367
227 0 0 1000000000 0 0.9075 0.09254
228 0 0 1000000000 0 0.8499 0.1501
229 0 0 1000000000 0 0.5993 0.4007
230 0 0 1000000000 0 0.6122 0.3878
231 0 0 1000000000 0 0.4658 0.5342
232 0 0 1000000000 0 0.7322 0.2678
233 0 0 1000000000 0 0.8405 0.1595
234 0 0 1000000000 0 0.3984 0.6016
235 0 0 1000000000 0 0.5554 0.4446
236 0 0 1000000000 0 0.4035 0.5965
237 0 0 1000000000 0 0.301 0.699
238 0 0 1000000000 0 0.9595 0.04046
239 0 0 1000000000 0 0.6904 0.3096
240 0 0 1000000000 0 0.5578 0.4422
241 0 0 1000000000 0 0.9607 0.03934
242 0 0 1000000000 0 0.531 0.469
243 0 0 1000000000 0 0.7074 0.2926
244 0 0 1000000000 0 0.2618 0.7382
245 0 0 1000000000 0 0.7233 0.2767
246 0 0 1000000000 0 0.4519 0.5481
247 0 0 1000000000 0 0.2764 0.7236
248 0 0 1000000000 0 0.9262 0.0738
249 0 0 1000000000 0 0.7655 0.2345
250 0 0 1000000000 0 0.6905 0.3095
251 0 0 1000000000 0 0.5152 0.4848
252 0 0 1000000000 0 0.3401 0.6599
253 0 0 1000000000 0 0.4611 0.5389
254 0 0 1000000000 0 0.5178 0.4822
255 0 0 1000000000 0 0.3929 0.6071
256 0 0 1000000000 0 0.4325 0.5675
257 0 0 1000000000 0 0.3402 0.6598
258 0 0 1000000000 0 0.4272 0.5728
259 0 0 1000000000 0 0.4513 0.5487
260 0 0 1000000000 0 0.5 0.5
261 0 0 1000000000 0 0.4341 0.5659
262 0 0 1000000000 0 0.7735 0.2265
263 0 0 1000000000 0 0.4868 0.5132
264 0 0 1000000000 0 0.0381 0.9619
265 0 0 1000000000 0 0.3744 0.6256
266 0 0 1000000000 0 0.4248 0.5752
267 0 0 1000000000 0 0.5206 0.4794
268 0 0 1000000000 0 0.2471 0.7529
269 0 0 1000000000 0 0.4987 0.5013
270 0 0 1000000000 0 0.3957 0.6043
271 0 0 1000000000 0 0.9382 0.0618
272 0 0 1000000000 0 0.4903 0.5097
273 0 0 1000000000 0 0.1636 0.8364
274 0 0 1000000000 0 0.4754 0.5246
275 0 0 1000000000 0 0.4131 0.5869
276 0 0 1000000000 0 0.7309 0.2691
277 0 0 1000000000 0 0.9701 0.02985
278 0 0 1000000000 0 0.4458 0.5542
279 0 0 1000000000 0 0.9181 0.08189
280 0 0 1000000000 0 0.7543 0.2457
281 0 0 1000000000 0 0.5865 0.4135
282 0 0 1000000000 0 0.7594 0.2406
283 0 0 1000000000 0 0.9551 0.04488
284 0 0 1000000000 0 0.3929 0.6071
285 0 0 1000000000 0 0.2313 0.7687
286 0 0 1000000000 0 0.7906 0.2094
287 0 0 1000000000 0 0.7168 0.2832
288 0 0 1000000000 0 0.4898 0.5102
289 0 0 1000000000 0 0.4467 0.5533
290 0 0 1000000000 0 0.4243 0.5757
291 0 0 1000000000 0 0.3842 0.6158
292 0 0 1000000000 0 0.8046 0.1954
293 0 0 1000000000 0 0.6165 0.3835
294 0 0 1000000000 0 0.323 0.677
295 0 0 1000000000 0 0.181 0.819
296 0 0 1000000000 0 0.268 0.732
297 0 0 1000000000 0 0.8723 0.1277
298 0 0 1000000000 0 0.6816 0.3184
299 0 0 1000000000 0 0.5283 0.4717
300 0 0 1000000000 0 0.428 0.572
301 0 0 1000000000 0 0.6836 0.3164
302 0 0 1000000000 0 0.6799 0.3201
303 0 0 1000000000 0 0.3835 0.6165
304 0 0 1000000000 0 0.9489 0.05106
305 0 0 1000000000 0 0.4494 0.5506
306 0 0 1000000000 0 0.4572 0.5428
307 0 0 1000000000 0 0.8541 0.1459
308 0 0 1000000000 0 0.9311 0.06886
309 0 0 1000000000 0 0.7614 0.2386
310 0 0 1000000000 0 0.3527 0.6473
311 0 0 1000000000 0 0.4527 0.5473
312 0 0 1000000000 0 0.3839 0.6161
313 0 0 1000000000 0 0.4156 0.5844
314 0 0 1000000000 0 0.3683 0.6317
315 0 0 1000000000 0 0.4884 0.5116
316 0 0 1000000000 0 0.875 0.125
317 0 0 1000000000 0 0.4731 0.5269
